
Gurobi 12.0.2 (win64) logging started Mon Sep 15 14:21:03 2025

Set parameter LogFile to value "C:\Ioana\_uni\honours\slp\algorithm\Main_files\results\paracetamol with updated samples\Task_006_Sample002_irr_gurobi.log"
Gurobi Optimizer version 12.0.2 build v12.0.2rc0 (win64 - Windows 11.0 (26100.2))

CPU model: Intel(R) Core(TM) Ultra 5 125H, instruction set [SSE2|AVX|AVX2]
Thread count: 14 physical cores, 18 logical processors, using up to 18 threads

Non-default parameters:
TimeLimit  2200

Optimize a model with 47236 rows, 34517 columns and 146727 nonzeros
Model fingerprint: 0xdf274025
Variable types: 17268 continuous, 17249 integer (17249 binary)
Coefficient statistics:
  Matrix range     [1e-04, 8e+04]
  Objective range  [1e-04, 9e-01]
  Bounds range     [1e+00, 1e+03]
  RHS range        [1e+00, 1e+00]
Presolve removed 30814 rows and 21539 columns
Presolve time: 0.35s
Presolved: 16422 rows, 12978 columns, 54735 nonzeros
Variable types: 6426 continuous, 6552 integer (6552 binary)
Found heuristic solution: objective 10.9244127

Root relaxation: objective 9.240234e-01, 3384 iterations, 0.28 seconds (0.67 work units)

    Nodes    |    Current Node    |     Objective Bounds      |     Work
 Expl Unexpl |  Obj  Depth IntInf | Incumbent    BestBd   Gap | It/Node Time

     0     0    0.92402    0    2   10.92441    0.92402  91.5%     -    0s
H    0     0                       1.8035533    0.92402  48.8%     -    0s
H    0     0                       0.9553460    0.92402  3.28%     -    0s
     0     0    0.92402    0    2    0.95535    0.92402  3.28%     -    0s

Explored 1 nodes (3384 simplex iterations) in 0.75 seconds (1.15 work units)
Thread count was 18 (of 18 available processors)

Solution count 3: 0.955346 1.80355 10.9244 

Optimal solution found (tolerance 1.00e-04)
Best objective 9.553460022506e-01, best bound 9.553460022506e-01, gap 0.0000%
